Test:  optimization under pressure hcp                 (title)
nm                                                      (calc)
 s   n                                                  (ic,iio)
     9.000000                                           (alatt)
    1    1    1                                         (nsc)
       1.000000       0.000000       0.000000           (avec)
       0.500000  s    0.750000       0.000000
       0.000000       0.000000       1.633000
     0.00240     0.00000                                (cmass,press))
    1                                                   (ntype)
    2   Ar    36.00000                                  (natom,nameat,atmass)
       0.000000       0.000000       0.000000           (rat)
  t    1.000000  t    1.000000       0.500000
      40.000000                                         (rcut)
    9    9    9                                         (ncell)
  100 2010   10                                         (nstep,ntcheck,ntimes)
    000.00000     0.00100   500.00000                   (temp,ttol,dt)
