Test: md of Ar atom in fcc cell                        (title)
md                                                      (calc)
 s   n                                                  (ic,iio)
    10.000000                                           (alatt)
    2    2    2                                         (nsc)
       1.000000       0.000000       0.000000           (avec)
       0.000000       1.000000       0.000000
       0.000000       0.000000       1.000000
     0.00100     0.00000                                         (cmass)
    1                                                   (ntype)
    4   Ar    36.00000                                  (natom,nameat,atmass)
       0.000000       0.000000       0.000000           (rat)
       0.500000       0.500000       0.000000
       0.000000       0.500000       0.500000
       0.500000       0.000000       0.500000
      40.000000                                         (rcut)
    3    3    3                                         (ncell)
 1000  100   10                                         (nstep,ntcheck,ntimes)
    200.00000     0.00100   200.00000                   (temp,ttol,dt)
